c Random generated cnf formula, satisfiable: true
p cnf 10 50
3 2 7 0
3 2 -5 0
-2 -3 -4 0
6 1 -8 0
9 1 5 0
-3 9 7 0
-8 -9 6 0
4 -8 1 0
-1 4 -6 0
-2 -8 -7 0
8 -4 -3 0
-3 4 1 0
7 8 -1 0
2 9 5 0
7 -4 10 0
-1 -2 -7 0
9 -5 -8 0
6 5 7 0
6 2 3 0
4 8 -3 0
3 6 7 0
4 -2 -1 0
2 6 -8 0
5 -10 -8 0
10 3 -2 0
10 1 -5 0
-3 1 2 0
-4 -2 3 0
1 10 -5 0
-3 -8 9 0
-2 -7 4 0
-6 1 -8 0
-2 1 4 0
-10 -4 6 0
-10 1 -9 0
9 -5 -6 0
-4 -7 -5 0
-3 -10 -1 0
5 -8 -6 0
-3 8 6 0
-5 9 8 0
-8 7 5 0
-2 5 -4 0
3 -10 1 0
6 3 -4 0
3 4 5 0
6 -7 -3 0
4 -8 1 0
-4 -6 -1 0
3 10 -1 0
